*MODEL INPUT FILE            A     1     1     1     1     0
*FILES              
MODEL          MZCER048
FILEX          TEST01MZ.MZX                                                                                 
FILEA          TEST01MZ.MZA                                                                                 
FILET          TEST01MZ.MZT                                                                                 
SPECIES        MZCER048.SPE                                                                                 
ECOTYPE        MZCER048.ECO                                                                                 
CULTIVAR       MZCER048.CUL                                                                                 
PESTS          MZCER048.PST ///usr/local/google/home/vyoms/Desktop/dssat-csm-os/Data/Pest/                  
SOILS          IB.SOL                                                                                       
WEATHERW       UFGA1201.WTH                                                                                 
OUTPUT         TEST01MZ
*SIMULATION CONTROL 
                   1     1     W 2012001  2150 2001 Maize Experiment Ir 
                   Y     Y     N     N     N     N     N     N     M
                   M     M     E     R     S     C     R     1     G     R     2     D     0
                   A     A     A     A     M
                   Y     Y     Y    14     Y     N     N     N     N     N     Y     Y     Y
!AUTOMATIC MANAGEM  
               2012113 2012173   20.  100.   30.   40.   10.
                 40.   99.  100. GS000 IR001  10.0 1.000
                 30.   10.   50. FE001 GS000
                 50.     1   10.
                     0     -99  100.    0.
*EXP.DETAILS        
  1TEST01MZ MZ                                                             
*TREATMENTS         
  1 1 1 0 AG9010 - Rainfed         
*CULTIVARS          
   MZ IB0003 LG11            
*FIELDS             
   MZCER048 UFGA1201   0.0  -99.   -99  -99. 100.0   -99 SG     -99. IB00720001-99.00 -99.0
    -99.0000000000  -99.0000000000   -99.000               1.0  100.   1.0 -99.0   -99   -99
*INITIAL CONDITIONS 
   MZ    2012001     0     0  1.00  1.00 -99.0   500  1.00  0.00  100.    2.
      5. 0.185  5.00  15.0
     15. 0.190  5.00  15.0
     30. 0.212  5.00  15.0
     45. 0.257  5.00  15.0
     60. 0.257  5.00  15.0
     80. 0.295  5.00  15.0
    100. 0.295  5.00  15.0
    119. 0.282  5.00  15.0
    139. 0.282  5.00  15.0
    200. 0.256  5.00  15.0
*PLANTING DETAILS   
   2012130     -99   7.0   7.0     S     R   76.  -99.   7.0  -99.  -99. -99.0 -99.0   0.0
*IRRIGATION         
   1.000   40.   75.  100. GS000 IR001  10.0
         0 IR001  79.0
*FERTILIZERS        
         1 FE001 AP002   15.  212.  -99.  -99.  -99.  -99.   -99
        63 FE001 AP002   15.  166.  -99.  -99.  -99.  -99.   -99
*RESIDUES           
*CHEMICALS          
*TILLAGE            
*ENVIRONMENT        
*HARVEST            
*SOIL               
 IB00720001  SG-40.1--8  SG     -99. 200 -99                                           
 SG-40.1--88  SG          40.060 -88.190  Unknown                                          
 -99    0.13   6.0  0.50   75.  1.00  1.00 SA001 SA001 SA001 -99  
    5.       0.150 0.300 0.450 1.000 0.500  1.40  10.0  24.0  63.0   1.0  -9.0  6.50-99.00-99.00-99.00
   15.       0.150 0.300 0.450 1.000  1.25  1.40  10.0  24.0  63.0   0.5  -9.0  6.50-99.00-99.00-99.00
   30.       0.150 0.300 0.450 0.579  2.01  1.40  10.0  24.9  63.0   0.0  -9.0  6.41-99.00-99.00-99.00
   45.       0.150 0.300 0.450 0.301  1.50  1.50 7.600  28.0  62.0   0.0  -9.0  6.40-99.00-99.00-99.00
   60.       0.150 0.300 0.450 0.301  1.50  1.50 7.600  28.0  62.0   0.0  -9.0  6.40-99.00-99.00-99.00
   80.       0.150 0.300 0.450 0.135 0.900  1.60 3.600  30.0  60.0   1.0  -9.0  6.40-99.00-99.00-99.00
  100.       0.150 0.300 0.450 0.135 0.900  1.60 3.600  30.0  60.0   1.0  -9.0  6.40-99.00-99.00-99.00
  119.       0.150 0.300 0.450 0.062  1.20  1.70 0.500  27.0  47.0   4.0  -9.0  7.00-99.00-99.00-99.00
  139.       0.150 0.300 0.450 0.062  1.20  1.70 0.500  27.0  47.0   4.0  -9.0  7.00-99.00-99.00-99.00
  200.       0.150 0.300 0.450 0.018  2.00  1.70 1.800  21.0  52.0   7.0  -9.0  7.50-99.00-99.00-99.00
                    
    5.-99.00 -99.0 -99.0 -99.0 -99.0 -99.0 -99.0 -99.0 -99.0 -99.0-99.00 -99.0 -99.0 -99.0 -99.0 -99.0  -99.  -99.
   15.-99.00 -99.0 -99.0 -99.0 -99.0 -99.0 -99.0 -99.0 -99.0 -99.0-99.00 -99.0 -99.0 -99.0 -99.0 -99.0  -99.  -99.
   30.-99.00 -99.0 -99.0 -99.0 -99.0 -99.0 -99.0 -99.0 -99.0 -99.0-99.00 -99.0 -99.0 -99.0 -99.0 -99.0  -99.  -99.
   45.-99.00 -99.0 -99.0 -99.0 -99.0 -99.0 -99.0 -99.0 -99.0 -99.0-99.00 -99.0 -99.0 -99.0 -99.0 -99.0  -99.  -99.
   60.-99.00 -99.0 -99.0 -99.0 -99.0 -99.0 -99.0 -99.0 -99.0 -99.0-99.00 -99.0 -99.0 -99.0 -99.0 -99.0  -99.  -99.
   80.-99.00 -99.0 -99.0 -99.0 -99.0 -99.0 -99.0 -99.0 -99.0 -99.0-99.00 -99.0 -99.0 -99.0 -99.0 -99.0  -99.  -99.
  100.-99.00 -99.0 -99.0 -99.0 -99.0 -99.0 -99.0 -99.0 -99.0 -99.0-99.00 -99.0 -99.0 -99.0 -99.0 -99.0  -99.  -99.
  119.-99.00 -99.0 -99.0 -99.0 -99.0 -99.0 -99.0 -99.0 -99.0 -99.0-99.00 -99.0 -99.0 -99.0 -99.0 -99.0  -99.  -99.
  139.-99.00 -99.0 -99.0 -99.0 -99.0 -99.0 -99.0 -99.0 -99.0 -99.0-99.00 -99.0 -99.0 -99.0 -99.0 -99.0  -99.  -99.
  200.-99.00 -99.0 -99.0 -99.0 -99.0 -99.0 -99.0 -99.0 -99.0 -99.0-99.00 -99.0 -99.0 -99.0 -99.0 -99.0  -99.  -99.
                    
    5.-99.00-99.00-99.00-99.00
   15.-99.00-99.00-99.00-99.00
   30.-99.00-99.00-99.00-99.00
   45.-99.00-99.00-99.00-99.00
   60.-99.00-99.00-99.00-99.00
   80.-99.00-99.00-99.00-99.00
  100.-99.00-99.00-99.00-99.00
  119.-99.00-99.00-99.00-99.00
  139.-99.00-99.00-99.00-99.00
  200.-99.00-99.00-99.00-99.00
*CULTIVAR           
IB0003 LG11             IB0001  125.0 0.000 685.0 907.9 10.00 38.90
